
  22   10
  10   10   10   10   10   10   10   10   10   10

   0   0   0   0   0   0   0   0   0   0   0   1 2 
   7  10  10  10  10  10  10  10  10  10  10   1 3 
   8  10  10  10  10  10  10  10  10  10  10   1 4 
   4  10  10  10  10  10  10  10  10  10  10   1 5 
   7  10  10  10  10  10  10  10  10  10  10   1 6 
   1  10  10  10  10  10  10  10  10  10  10   2 9 7 
   9  10  10  10  10  10  10  10  10  10  10   1 8 
   2  10  10  10  10  10  10  10  10  10  10   1 10 
   7  10  10  10  10  10  10  10  10  10  10   1 10 
   8  10  10  10  10  10  10  10  10  10  10   1 11 
   9  10  10  10  10  10  10  10  10  10  10   1 12 
   2  10  10  10  10  10  10  10  10  10  10   1 13 
   3  10  10  10  10  10  10  10  10  10  10   1 14 
   3  10  10  10  10  10  10  10  10  10  10   1 15 
   8  10  10  10  10  10  10  10  10  10  10   2 21 16 
   6  10  10  10  10  10  10  10  10  10  10   1 17 
   1  10  10  10  10  10  10  10  10  10  10   1 18 
   2  10  10  10  10  10  10  10  10  10  10   1 19 
   5  10  10  10  10  10  10  10  10  10  10   1 20 
   6  10  10  10  10  10  10  10  10  10  10   1 22
   5  10  10  10  10  10  10  10  10  10  10   1 22
   0   0   0   0   0   0   0   0   0   0   0   0 
